p cnf 813 2733
1 0
2 0
3 0
4 0
5 0
6 0
7 0
8 0
9 0
10 0
-11 0
-12 0
-13 0
-14 0
-15 0
-16 0
-17 0
-18 0
-19 0
-20 0
-1 21 -22 0
1 -21 -22 0
-1 -21 22 0
1 21 22 0
-23 -22 0
1 -21 -24 0
-1 21 -24 0
24 -1 -21 0
24 1 21 0
-25 24 0
-26 24 0
-27 24 0
-2 28 -29 0
2 -28 -29 0
-2 -28 29 0
2 28 29 0
-23 -29 0
2 -28 -30 0
-2 28 -30 0
30 -2 -28 0
30 2 28 0
-25 30 0
-26 30 0
-27 30 0
-3 31 -32 0
3 -31 -32 0
-3 -31 32 0
3 31 32 0
-23 -32 0
3 -31 -33 0
-3 31 -33 0
33 -3 -31 0
33 3 31 0
-25 33 0
-26 33 0
-27 33 0
-4 34 -35 0
4 -34 -35 0
-4 -34 35 0
4 34 35 0
-23 -35 0
4 -34 -36 0
-4 34 -36 0
36 -4 -34 0
36 4 34 0
-25 36 0
-26 36 0
-27 36 0
-5 37 -38 0
5 -37 -38 0
-5 -37 38 0
5 37 38 0
-23 -38 0
5 -37 -39 0
-5 37 -39 0
39 -5 -37 0
39 5 37 0
-25 39 0
-26 39 0
-27 39 0
-6 40 -41 0
6 -40 -41 0
-6 -40 41 0
6 40 41 0
-23 -41 0
6 -40 -42 0
-6 40 -42 0
42 -6 -40 0
42 6 40 0
-25 42 0
-26 42 0
-27 42 0
43 -7 -44 0
7 -43 -44 0
-43 -7 44 0
7 43 44 0
-23 -44 0
7 -43 -45 0
43 -7 -45 0
45 -7 -43 0
45 7 43 0
-25 45 0
-26 45 0
-27 45 0
46 -8 -47 0
8 -46 -47 0
-46 -8 47 0
8 46 47 0
-23 -47 0
8 -46 -48 0
46 -8 -48 0
48 -8 -46 0
48 8 46 0
-25 48 0
-26 48 0
-27 48 0
49 -9 -50 0
9 -49 -50 0
-49 -9 50 0
9 49 50 0
-23 -50 0
9 -49 -51 0
49 -9 -51 0
51 -9 -49 0
51 9 49 0
-25 51 0
-26 51 0
-27 51 0
52 -10 -53 0
10 -52 -53 0
-52 -10 53 0
10 52 53 0
-23 -53 0
10 -52 -54 0
52 -10 -54 0
54 -10 -52 0
54 10 52 0
-25 54 0
-26 54 0
-27 54 0
-11 55 -56 0
11 -55 -56 0
-11 -55 56 0
11 55 56 0
-23 -56 0
11 -57 -58 0
-11 57 -58 0
58 -11 -57 0
58 11 57 0
-25 58 0
-59 60 0
-55 60 0
59 55 -60 0
11 -60 -61 0
-11 60 -61 0
-11 -60 61 0
11 60 61 0
-26 61 0
55 62 0
59 62 0
-55 -59 -62 0
-11 62 -63 0
11 -62 -63 0
63 -62 -11 0
11 62 63 0
-27 -63 0
-59 57 -64 0
59 -57 -64 0
-59 -57 64 0
59 57 64 0
-23 -64 0
59 -65 -66 0
-59 65 -66 0
66 -59 -65 0
66 59 65 0
-25 66 0
-67 68 0
-57 68 0
67 57 -68 0
59 -68 -69 0
-59 68 -69 0
-59 -68 69 0
59 68 69 0
-26 69 0
67 70 0
57 70 0
-67 -57 -70 0
-59 70 -71 0
59 -70 -71 0
71 -70 -59 0
59 70 71 0
-27 -71 0
-67 65 -72 0
67 -65 -72 0
-67 -65 72 0
67 65 72 0
-23 -72 0
67 -73 -74 0
-67 73 -74 0
74 -67 -73 0
74 67 73 0
-25 74 0
-75 76 0
-65 76 0
75 65 -76 0
67 -76 -77 0
-67 76 -77 0
-67 -76 77 0
67 76 77 0
-26 77 0
75 78 0
65 78 0
-75 -65 -78 0
-67 78 -79 0
67 -78 -79 0
79 -78 -67 0
67 78 79 0
-27 -79 0
-75 73 -80 0
75 -73 -80 0
-75 -73 80 0
75 73 80 0
-23 -80 0
75 -81 -82 0
-75 81 -82 0
82 -75 -81 0
82 75 81 0
-25 82 0
-83 84 0
-73 84 0
83 73 -84 0
75 -84 -85 0
-75 84 -85 0
-75 -84 85 0
75 84 85 0
-26 85 0
83 86 0
73 86 0
-83 -73 -86 0
-75 86 -87 0
75 -86 -87 0
87 -86 -75 0
75 86 87 0
-27 -87 0
-83 81 -88 0
83 -81 -88 0
-83 -81 88 0
83 81 88 0
-23 -88 0
83 -89 -90 0
-83 89 -90 0
90 -83 -89 0
90 83 89 0
-25 90 0
-91 92 0
-81 92 0
91 81 -92 0
83 -92 -93 0
-83 92 -93 0
-83 -92 93 0
83 92 93 0
-26 93 0
91 94 0
81 94 0
-91 -81 -94 0
-83 94 -95 0
83 -94 -95 0
95 -94 -83 0
83 94 95 0
-27 -95 0
-91 89 -96 0
91 -89 -96 0
-91 -89 96 0
91 89 96 0
-23 -96 0
91 -97 -98 0
-91 97 -98 0
98 -91 -97 0
98 91 97 0
-25 98 0
-99 100 0
-89 100 0
99 89 -100 0
91 -100 -101 0
-91 100 -101 0
-91 -100 101 0
91 100 101 0
-26 101 0
99 102 0
89 102 0
-99 -89 -102 0
-91 102 -103 0
91 -102 -103 0
103 -102 -91 0
91 102 103 0
-27 -103 0
-99 97 -104 0
99 -97 -104 0
-99 -97 104 0
99 97 104 0
-23 -104 0
99 -105 -106 0
-99 105 -106 0
106 -99 -105 0
106 99 105 0
-25 106 0
-107 108 0
-97 108 0
107 97 -108 0
99 -108 -109 0
-99 108 -109 0
-99 -108 109 0
99 108 109 0
-26 109 0
107 110 0
97 110 0
-107 -97 -110 0
-99 110 -111 0
99 -110 -111 0
111 -110 -99 0
99 110 111 0
-27 -111 0
-107 105 -112 0
107 -105 -112 0
-107 -105 112 0
107 105 112 0
-23 -112 0
107 -113 -114 0
-107 113 -114 0
114 -107 -113 0
114 107 113 0
-25 114 0
-115 116 0
-105 116 0
115 105 -116 0
107 -116 -117 0
-107 116 -117 0
-107 -116 117 0
107 116 117 0
-26 117 0
115 118 0
105 118 0
-115 -105 -118 0
-107 118 -119 0
107 -118 -119 0
119 -118 -107 0
107 118 119 0
-27 -119 0
-115 113 -120 0
115 -113 -120 0
-115 -113 120 0
115 113 120 0
-23 -120 0
115 -81 -121 0
-115 81 -121 0
121 -115 -81 0
121 115 81 0
-25 121 0
-81 122 0
-89 122 0
-97 122 0
-105 122 0
-113 122 0
123 0
115 -122 -124 0
-115 122 -124 0
-115 -122 124 0
115 122 124 0
-26 124 0
81 125 0
89 125 0
97 125 0
105 125 0
113 125 0
-126 0
-115 125 -127 0
115 -125 -127 0
127 -125 -115 0
115 125 127 0
-27 -127 0
-12 128 -129 0
12 -128 -129 0
-12 -128 129 0
12 128 129 0
-23 -129 0
12 -130 -131 0
-12 130 -131 0
131 -12 -130 0
131 12 130 0
-25 131 0
-132 133 0
-128 133 0
132 128 -133 0
12 -133 -134 0
-12 133 -134 0
-12 -133 134 0
12 133 134 0
-26 134 0
132 135 0
128 135 0
-132 -128 -135 0
-12 135 -136 0
12 -135 -136 0
136 -135 -12 0
12 135 136 0
-27 -136 0
-132 130 -137 0
132 -130 -137 0
-132 -130 137 0
132 130 137 0
-23 -137 0
132 -138 -139 0
-132 138 -139 0
139 -132 -138 0
139 132 138 0
-25 139 0
-140 141 0
-130 141 0
140 130 -141 0
132 -141 -142 0
-132 141 -142 0
-132 -141 142 0
132 141 142 0
-26 142 0
140 143 0
130 143 0
-140 -130 -143 0
-132 143 -144 0
132 -143 -144 0
144 -143 -132 0
132 143 144 0
-27 -144 0
-140 138 -145 0
140 -138 -145 0
-140 -138 145 0
140 138 145 0
-23 -145 0
140 -146 -147 0
-140 146 -147 0
147 -140 -146 0
147 140 146 0
-25 147 0
-148 149 0
-138 149 0
148 138 -149 0
140 -149 -150 0
-140 149 -150 0
-140 -149 150 0
140 149 150 0
-26 150 0
148 151 0
138 151 0
-148 -138 -151 0
-140 151 -152 0
140 -151 -152 0
152 -151 -140 0
140 151 152 0
-27 -152 0
-148 146 -153 0
148 -146 -153 0
-148 -146 153 0
148 146 153 0
-23 -153 0
148 -154 -155 0
-148 154 -155 0
155 -148 -154 0
155 148 154 0
-25 155 0
-156 157 0
-146 157 0
156 146 -157 0
148 -157 -158 0
-148 157 -158 0
-148 -157 158 0
148 157 158 0
-26 158 0
156 159 0
146 159 0
-156 -146 -159 0
-148 159 -160 0
148 -159 -160 0
160 -159 -148 0
148 159 160 0
-27 -160 0
-156 154 -161 0
156 -154 -161 0
-156 -154 161 0
156 154 161 0
-23 -161 0
156 -162 -163 0
-156 162 -163 0
163 -156 -162 0
163 156 162 0
-25 163 0
-164 165 0
-154 165 0
164 154 -165 0
156 -165 -166 0
-156 165 -166 0
-156 -165 166 0
156 165 166 0
-26 166 0
164 167 0
154 167 0
-164 -154 -167 0
-156 167 -168 0
156 -167 -168 0
168 -167 -156 0
156 167 168 0
-27 -168 0
-164 162 -169 0
164 -162 -169 0
-164 -162 169 0
164 162 169 0
-23 -169 0
164 -170 -171 0
-164 170 -171 0
171 -164 -170 0
171 164 170 0
-25 171 0
-172 173 0
-162 173 0
172 162 -173 0
164 -173 -174 0
-164 173 -174 0
-164 -173 174 0
164 173 174 0
-26 174 0
172 175 0
162 175 0
-172 -162 -175 0
-164 175 -176 0
164 -175 -176 0
176 -175 -164 0
164 175 176 0
-27 -176 0
-172 170 -177 0
172 -170 -177 0
-172 -170 177 0
172 170 177 0
-23 -177 0
172 -178 -179 0
-172 178 -179 0
179 -172 -178 0
179 172 178 0
-25 179 0
-180 181 0
-170 181 0
180 170 -181 0
172 -181 -182 0
-172 181 -182 0
-172 -181 182 0
172 181 182 0
-26 182 0
180 183 0
170 183 0
-180 -170 -183 0
-172 183 -184 0
172 -183 -184 0
184 -183 -172 0
172 183 184 0
-27 -184 0
-180 178 -185 0
180 -178 -185 0
-180 -178 185 0
180 178 185 0
-23 -185 0
180 -186 -187 0
-180 186 -187 0
187 -180 -186 0
187 180 186 0
-25 187 0
-188 189 0
-178 189 0
188 178 -189 0
180 -189 -190 0
-180 189 -190 0
-180 -189 190 0
180 189 190 0
-26 190 0
188 191 0
178 191 0
-188 -178 -191 0
-180 191 -192 0
180 -191 -192 0
192 -191 -180 0
180 191 192 0
-27 -192 0
-188 186 -193 0
188 -186 -193 0
-188 -186 193 0
188 186 193 0
-23 -193 0
188 -194 -195 0
-188 194 -195 0
195 -188 -194 0
195 188 194 0
-25 195 0
-196 197 0
-186 197 0
196 186 -197 0
188 -197 -198 0
-188 197 -198 0
-188 -197 198 0
188 197 198 0
-26 198 0
196 199 0
186 199 0
-196 -186 -199 0
-188 199 -200 0
188 -199 -200 0
200 -199 -188 0
188 199 200 0
-27 -200 0
-196 194 -201 0
196 -194 -201 0
-196 -194 201 0
196 194 201 0
-23 -201 0
196 -170 -202 0
-196 170 -202 0
202 -196 -170 0
202 196 170 0
-25 202 0
-170 203 0
-178 203 0
-186 203 0
-194 203 0
170 178 186 194 -203 0
196 -203 -204 0
-196 203 -204 0
-196 -203 204 0
196 203 204 0
-26 204 0
170 205 0
178 205 0
186 205 0
194 205 0
-206 0
-196 205 -207 0
196 -205 -207 0
207 -205 -196 0
196 205 207 0
-27 -207 0
-13 208 -209 0
13 -208 -209 0
-13 -208 209 0
13 208 209 0
-23 -209 0
13 -210 -211 0
-13 210 -211 0
211 -13 -210 0
211 13 210 0
-25 211 0
-212 213 0
-208 213 0
212 208 -213 0
13 -213 -214 0
-13 213 -214 0
-13 -213 214 0
13 213 214 0
-26 214 0
212 215 0
208 215 0
-212 -208 -215 0
-13 215 -216 0
13 -215 -216 0
216 -215 -13 0
13 215 216 0
-27 -216 0
-212 210 -217 0
212 -210 -217 0
-212 -210 217 0
212 210 217 0
-23 -217 0
212 -218 -219 0
-212 218 -219 0
219 -212 -218 0
219 212 218 0
-25 219 0
-220 221 0
-210 221 0
220 210 -221 0
212 -221 -222 0
-212 221 -222 0
-212 -221 222 0
212 221 222 0
-26 222 0
220 223 0
210 223 0
-220 -210 -223 0
-212 223 -224 0
212 -223 -224 0
224 -223 -212 0
212 223 224 0
-27 -224 0
-220 218 -225 0
220 -218 -225 0
-220 -218 225 0
220 218 225 0
-23 -225 0
220 -226 -227 0
-220 226 -227 0
227 -220 -226 0
227 220 226 0
-25 227 0
-228 229 0
-218 229 0
228 218 -229 0
220 -229 -230 0
-220 229 -230 0
-220 -229 230 0
220 229 230 0
-26 230 0
228 231 0
218 231 0
-228 -218 -231 0
-220 231 -232 0
220 -231 -232 0
232 -231 -220 0
220 231 232 0
-27 -232 0
-228 226 -233 0
228 -226 -233 0
-228 -226 233 0
228 226 233 0
-23 -233 0
228 -234 -235 0
-228 234 -235 0
235 -228 -234 0
235 228 234 0
-25 235 0
-236 237 0
-226 237 0
236 226 -237 0
228 -237 -238 0
-228 237 -238 0
-228 -237 238 0
228 237 238 0
-26 238 0
236 239 0
226 239 0
-236 -226 -239 0
-228 239 -240 0
228 -239 -240 0
240 -239 -228 0
228 239 240 0
-27 -240 0
-236 234 -241 0
236 -234 -241 0
-236 -234 241 0
236 234 241 0
-23 -241 0
236 -242 -243 0
-236 242 -243 0
243 -236 -242 0
243 236 242 0
-25 243 0
-244 245 0
-234 245 0
244 234 -245 0
236 -245 -246 0
-236 245 -246 0
-236 -245 246 0
236 245 246 0
-26 246 0
244 247 0
234 247 0
-244 -234 -247 0
-236 247 -248 0
236 -247 -248 0
248 -247 -236 0
236 247 248 0
-27 -248 0
-244 242 -249 0
244 -242 -249 0
-244 -242 249 0
244 242 249 0
-23 -249 0
244 -250 -251 0
-244 250 -251 0
251 -244 -250 0
251 244 250 0
-25 251 0
-252 253 0
-242 253 0
252 242 -253 0
244 -253 -254 0
-244 253 -254 0
-244 -253 254 0
244 253 254 0
-26 254 0
252 255 0
242 255 0
-252 -242 -255 0
-244 255 -256 0
244 -255 -256 0
256 -255 -244 0
244 255 256 0
-27 -256 0
-252 250 -257 0
252 -250 -257 0
-252 -250 257 0
252 250 257 0
-23 -257 0
252 -258 -259 0
-252 258 -259 0
259 -252 -258 0
259 252 258 0
-25 259 0
-260 261 0
-250 261 0
260 250 -261 0
252 -261 -262 0
-252 261 -262 0
-252 -261 262 0
252 261 262 0
-26 262 0
260 263 0
250 263 0
-260 -250 -263 0
-252 263 -264 0
252 -263 -264 0
264 -263 -252 0
252 263 264 0
-27 -264 0
-260 258 -265 0
260 -258 -265 0
-260 -258 265 0
260 258 265 0
-23 -265 0
260 -266 -267 0
-260 266 -267 0
267 -260 -266 0
267 260 266 0
-25 267 0
-268 269 0
-258 269 0
268 258 -269 0
260 -269 -270 0
-260 269 -270 0
-260 -269 270 0
260 269 270 0
-26 270 0
268 271 0
258 271 0
-268 -258 -271 0
-260 271 -272 0
260 -271 -272 0
272 -271 -260 0
260 271 272 0
-27 -272 0
-268 266 -273 0
268 -266 -273 0
-268 -266 273 0
268 266 273 0
-23 -273 0
268 -274 -275 0
-268 274 -275 0
275 -268 -274 0
275 268 274 0
-25 275 0
-276 277 0
-266 277 0
276 266 -277 0
268 -277 -278 0
-268 277 -278 0
-268 -277 278 0
268 277 278 0
-26 278 0
276 279 0
266 279 0
-276 -266 -279 0
-268 279 -280 0
268 -279 -280 0
280 -279 -268 0
268 279 280 0
-27 -280 0
-276 274 -281 0
276 -274 -281 0
-276 -274 281 0
276 274 281 0
-23 -281 0
276 -282 -283 0
-276 282 -283 0
283 -276 -282 0
283 276 282 0
-25 283 0
-284 285 0
-274 285 0
284 274 -285 0
276 -285 -286 0
-276 285 -286 0
-276 -285 286 0
276 285 286 0
-26 286 0
284 287 0
274 287 0
-284 -274 -287 0
-276 287 -288 0
276 -287 -288 0
288 -287 -276 0
276 287 288 0
-27 -288 0
-284 282 -289 0
284 -282 -289 0
-284 -282 289 0
284 282 289 0
-23 -289 0
284 -242 -290 0
-284 242 -290 0
290 -284 -242 0
290 284 242 0
-25 290 0
-242 291 0
-250 291 0
-258 291 0
-266 291 0
-274 291 0
-282 291 0
292 0
284 -291 -293 0
-284 291 -293 0
-284 -291 293 0
284 291 293 0
-26 293 0
242 294 0
250 294 0
258 294 0
266 294 0
274 294 0
282 294 0
-295 0
-284 294 -296 0
284 -294 -296 0
296 -294 -284 0
284 294 296 0
-27 -296 0
-14 297 -298 0
14 -297 -298 0
-14 -297 298 0
14 297 298 0
-23 -298 0
14 -299 -300 0
-14 299 -300 0
300 -14 -299 0
300 14 299 0
-25 300 0
-301 302 0
-297 302 0
301 297 -302 0
14 -302 -303 0
-14 302 -303 0
-14 -302 303 0
14 302 303 0
-26 303 0
301 304 0
297 304 0
-301 -297 -304 0
-14 304 -305 0
14 -304 -305 0
305 -304 -14 0
14 304 305 0
-27 -305 0
-301 299 -306 0
301 -299 -306 0
-301 -299 306 0
301 299 306 0
-23 -306 0
301 -307 -308 0
-301 307 -308 0
308 -301 -307 0
308 301 307 0
-25 308 0
-309 310 0
-299 310 0
309 299 -310 0
301 -310 -311 0
-301 310 -311 0
-301 -310 311 0
301 310 311 0
-26 311 0
309 312 0
299 312 0
-309 -299 -312 0
-301 312 -313 0
301 -312 -313 0
313 -312 -301 0
301 312 313 0
-27 -313 0
-309 307 -314 0
309 -307 -314 0
-309 -307 314 0
309 307 314 0
-23 -314 0
309 -315 -316 0
-309 315 -316 0
316 -309 -315 0
316 309 315 0
-25 316 0
-317 318 0
-307 318 0
317 307 -318 0
309 -318 -319 0
-309 318 -319 0
-309 -318 319 0
309 318 319 0
-26 319 0
317 320 0
307 320 0
-317 -307 -320 0
-309 320 -321 0
309 -320 -321 0
321 -320 -309 0
309 320 321 0
-27 -321 0
-317 315 -322 0
317 -315 -322 0
-317 -315 322 0
317 315 322 0
-23 -322 0
317 -323 -324 0
-317 323 -324 0
324 -317 -323 0
324 317 323 0
-25 324 0
-325 326 0
-315 326 0
325 315 -326 0
317 -326 -327 0
-317 326 -327 0
-317 -326 327 0
317 326 327 0
-26 327 0
325 328 0
315 328 0
-325 -315 -328 0
-317 328 -329 0
317 -328 -329 0
329 -328 -317 0
317 328 329 0
-27 -329 0
-325 323 -330 0
325 -323 -330 0
-325 -323 330 0
325 323 330 0
-23 -330 0
325 -331 -332 0
-325 331 -332 0
332 -325 -331 0
332 325 331 0
-25 332 0
-333 334 0
-323 334 0
333 323 -334 0
325 -334 -335 0
-325 334 -335 0
-325 -334 335 0
325 334 335 0
-26 335 0
333 336 0
323 336 0
-333 -323 -336 0
-325 336 -337 0
325 -336 -337 0
337 -336 -325 0
325 336 337 0
-27 -337 0
-333 331 -338 0
333 -331 -338 0
-333 -331 338 0
333 331 338 0
-23 -338 0
333 -339 -340 0
-333 339 -340 0
340 -333 -339 0
340 333 339 0
-25 340 0
-341 342 0
-331 342 0
341 331 -342 0
333 -342 -343 0
-333 342 -343 0
-333 -342 343 0
333 342 343 0
-26 343 0
341 344 0
331 344 0
-341 -331 -344 0
-333 344 -345 0
333 -344 -345 0
345 -344 -333 0
333 344 345 0
-27 -345 0
-341 339 -346 0
341 -339 -346 0
-341 -339 346 0
341 339 346 0
-23 -346 0
341 -347 -348 0
-341 347 -348 0
348 -341 -347 0
348 341 347 0
-25 348 0
-349 350 0
-339 350 0
349 339 -350 0
341 -350 -351 0
-341 350 -351 0
-341 -350 351 0
341 350 351 0
-26 351 0
349 352 0
339 352 0
-349 -339 -352 0
-341 352 -353 0
341 -352 -353 0
353 -352 -341 0
341 352 353 0
-27 -353 0
-349 347 -354 0
349 -347 -354 0
-349 -347 354 0
349 347 354 0
-23 -354 0
349 -355 -356 0
-349 355 -356 0
356 -349 -355 0
356 349 355 0
-25 356 0
-357 358 0
-347 358 0
357 347 -358 0
349 -358 -359 0
-349 358 -359 0
-349 -358 359 0
349 358 359 0
-26 359 0
357 360 0
347 360 0
-357 -347 -360 0
-349 360 -361 0
349 -360 -361 0
361 -360 -349 0
349 360 361 0
-27 -361 0
-357 355 -362 0
357 -355 -362 0
-357 -355 362 0
357 355 362 0
-23 -362 0
357 -323 -363 0
-357 323 -363 0
363 -357 -323 0
363 357 323 0
-25 363 0
-323 364 0
-331 364 0
-339 364 0
-347 364 0
-355 364 0
365 0
357 -364 -366 0
-357 364 -366 0
-357 -364 366 0
357 364 366 0
-26 366 0
323 367 0
331 367 0
339 367 0
347 367 0
355 367 0
-368 0
-357 367 -369 0
357 -367 -369 0
369 -367 -357 0
357 367 369 0
-27 -369 0
-15 370 -371 0
15 -370 -371 0
-15 -370 371 0
15 370 371 0
-23 -371 0
15 -372 -373 0
-15 372 -373 0
373 -15 -372 0
373 15 372 0
-25 373 0
-374 375 0
-370 375 0
374 370 -375 0
15 -375 -376 0
-15 375 -376 0
-15 -375 376 0
15 375 376 0
-26 376 0
374 377 0
370 377 0
-374 -370 -377 0
-15 377 -378 0
15 -377 -378 0
378 -377 -15 0
15 377 378 0
-27 -378 0
-374 372 -379 0
374 -372 -379 0
-374 -372 379 0
374 372 379 0
-23 -379 0
374 -380 -381 0
-374 380 -381 0
381 -374 -380 0
381 374 380 0
-25 381 0
-382 383 0
-372 383 0
382 372 -383 0
374 -383 -384 0
-374 383 -384 0
-374 -383 384 0
374 383 384 0
-26 384 0
382 385 0
372 385 0
-382 -372 -385 0
-374 385 -386 0
374 -385 -386 0
386 -385 -374 0
374 385 386 0
-27 -386 0
-382 380 -387 0
382 -380 -387 0
-382 -380 387 0
382 380 387 0
-23 -387 0
382 -388 -389 0
-382 388 -389 0
389 -382 -388 0
389 382 388 0
-25 389 0
-390 391 0
-380 391 0
390 380 -391 0
382 -391 -392 0
-382 391 -392 0
-382 -391 392 0
382 391 392 0
-26 392 0
390 393 0
380 393 0
-390 -380 -393 0
-382 393 -394 0
382 -393 -394 0
394 -393 -382 0
382 393 394 0
-27 -394 0
-390 388 -395 0
390 -388 -395 0
-390 -388 395 0
390 388 395 0
-23 -395 0
390 -396 -397 0
-390 396 -397 0
397 -390 -396 0
397 390 396 0
-25 397 0
-398 399 0
-388 399 0
398 388 -399 0
390 -399 -400 0
-390 399 -400 0
-390 -399 400 0
390 399 400 0
-26 400 0
398 401 0
388 401 0
-398 -388 -401 0
-390 401 -402 0
390 -401 -402 0
402 -401 -390 0
390 401 402 0
-27 -402 0
-398 396 -403 0
398 -396 -403 0
-398 -396 403 0
398 396 403 0
-23 -403 0
398 -404 -405 0
-398 404 -405 0
405 -398 -404 0
405 398 404 0
-25 405 0
-406 407 0
-396 407 0
406 396 -407 0
398 -407 -408 0
-398 407 -408 0
-398 -407 408 0
398 407 408 0
-26 408 0
406 409 0
396 409 0
-406 -396 -409 0
-398 409 -410 0
398 -409 -410 0
410 -409 -398 0
398 409 410 0
-27 -410 0
-406 404 -411 0
406 -404 -411 0
-406 -404 411 0
406 404 411 0
-23 -411 0
406 -372 -412 0
-406 372 -412 0
412 -406 -372 0
412 406 372 0
-25 412 0
-372 413 0
-380 413 0
-388 413 0
-396 413 0
-404 413 0
414 0
406 -413 -415 0
-406 413 -415 0
-406 -413 415 0
406 413 415 0
-26 415 0
372 416 0
380 416 0
388 416 0
396 416 0
404 416 0
-417 0
-406 416 -418 0
406 -416 -418 0
418 -416 -406 0
406 416 418 0
-27 -418 0
-16 419 -420 0
16 -419 -420 0
-16 -419 420 0
16 419 420 0
-23 -420 0
16 -421 -422 0
-16 421 -422 0
422 -16 -421 0
422 16 421 0
-25 422 0
-423 424 0
-419 424 0
423 419 -424 0
16 -424 -425 0
-16 424 -425 0
-16 -424 425 0
16 424 425 0
-26 425 0
423 426 0
419 426 0
-423 -419 -426 0
-16 426 -427 0
16 -426 -427 0
427 -426 -16 0
16 426 427 0
-27 -427 0
-423 421 -428 0
423 -421 -428 0
-423 -421 428 0
423 421 428 0
-23 -428 0
423 -429 -430 0
-423 429 -430 0
430 -423 -429 0
430 423 429 0
-25 430 0
-431 432 0
-421 432 0
431 421 -432 0
423 -432 -433 0
-423 432 -433 0
-423 -432 433 0
423 432 433 0
-26 433 0
431 434 0
421 434 0
-431 -421 -434 0
-423 434 -435 0
423 -434 -435 0
435 -434 -423 0
423 434 435 0
-27 -435 0
-431 429 -436 0
431 -429 -436 0
-431 -429 436 0
431 429 436 0
-23 -436 0
431 -437 -438 0
-431 437 -438 0
438 -431 -437 0
438 431 437 0
-25 438 0
-439 440 0
-429 440 0
439 429 -440 0
431 -440 -441 0
-431 440 -441 0
-431 -440 441 0
431 440 441 0
-26 441 0
439 442 0
429 442 0
-439 -429 -442 0
-431 442 -443 0
431 -442 -443 0
443 -442 -431 0
431 442 443 0
-27 -443 0
-439 437 -444 0
439 -437 -444 0
-439 -437 444 0
439 437 444 0
-23 -444 0
439 -445 -446 0
-439 445 -446 0
446 -439 -445 0
446 439 445 0
-25 446 0
-447 448 0
-437 448 0
447 437 -448 0
439 -448 -449 0
-439 448 -449 0
-439 -448 449 0
439 448 449 0
-26 449 0
447 450 0
437 450 0
-447 -437 -450 0
-439 450 -451 0
439 -450 -451 0
451 -450 -439 0
439 450 451 0
-27 -451 0
-447 445 -452 0
447 -445 -452 0
-447 -445 452 0
447 445 452 0
-23 -452 0
447 -453 -454 0
-447 453 -454 0
454 -447 -453 0
454 447 453 0
-25 454 0
-455 456 0
-445 456 0
455 445 -456 0
447 -456 -457 0
-447 456 -457 0
-447 -456 457 0
447 456 457 0
-26 457 0
455 458 0
445 458 0
-455 -445 -458 0
-447 458 -459 0
447 -458 -459 0
459 -458 -447 0
447 458 459 0
-27 -459 0
-455 453 -460 0
455 -453 -460 0
-455 -453 460 0
455 453 460 0
-23 -460 0
455 -461 -462 0
-455 461 -462 0
462 -455 -461 0
462 455 461 0
-25 462 0
-463 464 0
-453 464 0
463 453 -464 0
455 -464 -465 0
-455 464 -465 0
-455 -464 465 0
455 464 465 0
-26 465 0
463 466 0
453 466 0
-463 -453 -466 0
-455 466 -467 0
455 -466 -467 0
467 -466 -455 0
455 466 467 0
-27 -467 0
-463 461 -468 0
463 -461 -468 0
-463 -461 468 0
463 461 468 0
-23 -468 0
463 -469 -470 0
-463 469 -470 0
470 -463 -469 0
470 463 469 0
-25 470 0
-471 472 0
-461 472 0
471 461 -472 0
463 -472 -473 0
-463 472 -473 0
-463 -472 473 0
463 472 473 0
-26 473 0
471 474 0
461 474 0
-471 -461 -474 0
-463 474 -475 0
463 -474 -475 0
475 -474 -463 0
463 474 475 0
-27 -475 0
-471 469 -476 0
471 -469 -476 0
-471 -469 476 0
471 469 476 0
-23 -476 0
471 -477 -478 0
-471 477 -478 0
478 -471 -477 0
478 471 477 0
-25 478 0
-479 480 0
-469 480 0
479 469 -480 0
471 -480 -481 0
-471 480 -481 0
-471 -480 481 0
471 480 481 0
-26 481 0
479 482 0
469 482 0
-479 -469 -482 0
-471 482 -483 0
471 -482 -483 0
483 -482 -471 0
471 482 483 0
-27 -483 0
-479 477 -484 0
479 -477 -484 0
-479 -477 484 0
479 477 484 0
-23 -484 0
479 -485 -486 0
-479 485 -486 0
486 -479 -485 0
486 479 485 0
-25 486 0
-487 488 0
-477 488 0
487 477 -488 0
479 -488 -489 0
-479 488 -489 0
-479 -488 489 0
479 488 489 0
-26 489 0
487 490 0
477 490 0
-487 -477 -490 0
-479 490 -491 0
479 -490 -491 0
491 -490 -479 0
479 490 491 0
-27 -491 0
-487 485 -492 0
487 -485 -492 0
-487 -485 492 0
487 485 492 0
-23 -492 0
487 -493 -494 0
-487 493 -494 0
494 -487 -493 0
494 487 493 0
-25 494 0
-495 496 0
-485 496 0
495 485 -496 0
487 -496 -497 0
-487 496 -497 0
-487 -496 497 0
487 496 497 0
-26 497 0
495 498 0
485 498 0
-495 -485 -498 0
-487 498 -499 0
487 -498 -499 0
499 -498 -487 0
487 498 499 0
-27 -499 0
-495 493 -500 0
495 -493 -500 0
-495 -493 500 0
495 493 500 0
-23 -500 0
495 -501 -502 0
-495 501 -502 0
502 -495 -501 0
502 495 501 0
-25 502 0
-503 504 0
-493 504 0
503 493 -504 0
495 -504 -505 0
-495 504 -505 0
-495 -504 505 0
495 504 505 0
-26 505 0
503 506 0
493 506 0
-503 -493 -506 0
-495 506 -507 0
495 -506 -507 0
507 -506 -495 0
495 506 507 0
-27 -507 0
-503 501 -508 0
503 -501 -508 0
-503 -501 508 0
503 501 508 0
-23 -508 0
503 -461 -509 0
-503 461 -509 0
509 -503 -461 0
509 503 461 0
-25 509 0
-461 510 0
-469 510 0
-477 510 0
-485 510 0
-493 510 0
-501 510 0
511 0
503 -510 -512 0
-503 510 -512 0
-503 -510 512 0
503 510 512 0
-26 512 0
461 513 0
469 513 0
477 513 0
485 513 0
493 513 0
501 513 0
-514 0
-503 513 -515 0
503 -513 -515 0
515 -513 -503 0
503 513 515 0
-27 -515 0
-17 516 -517 0
17 -516 -517 0
-17 -516 517 0
17 516 517 0
-23 -517 0
17 -518 -519 0
-17 518 -519 0
519 -17 -518 0
519 17 518 0
-25 519 0
-520 521 0
-516 521 0
520 516 -521 0
17 -521 -522 0
-17 521 -522 0
-17 -521 522 0
17 521 522 0
-26 522 0
520 523 0
516 523 0
-520 -516 -523 0
-17 523 -524 0
17 -523 -524 0
524 -523 -17 0
17 523 524 0
-27 -524 0
-520 518 -525 0
520 -518 -525 0
-520 -518 525 0
520 518 525 0
-23 -525 0
520 -526 -527 0
-520 526 -527 0
527 -520 -526 0
527 520 526 0
-25 527 0
-528 529 0
-518 529 0
528 518 -529 0
520 -529 -530 0
-520 529 -530 0
-520 -529 530 0
520 529 530 0
-26 530 0
528 531 0
518 531 0
-528 -518 -531 0
-520 531 -532 0
520 -531 -532 0
532 -531 -520 0
520 531 532 0
-27 -532 0
-528 526 -533 0
528 -526 -533 0
-528 -526 533 0
528 526 533 0
-23 -533 0
528 -534 -535 0
-528 534 -535 0
535 -528 -534 0
535 528 534 0
-25 535 0
-536 537 0
-526 537 0
536 526 -537 0
528 -537 -538 0
-528 537 -538 0
-528 -537 538 0
528 537 538 0
-26 538 0
536 539 0
526 539 0
-536 -526 -539 0
-528 539 -540 0
528 -539 -540 0
540 -539 -528 0
528 539 540 0
-27 -540 0
-536 534 -541 0
536 -534 -541 0
-536 -534 541 0
536 534 541 0
-23 -541 0
536 -542 -543 0
-536 542 -543 0
543 -536 -542 0
543 536 542 0
-25 543 0
-544 545 0
-534 545 0
544 534 -545 0
536 -545 -546 0
-536 545 -546 0
-536 -545 546 0
536 545 546 0
-26 546 0
544 547 0
534 547 0
-544 -534 -547 0
-536 547 -548 0
536 -547 -548 0
548 -547 -536 0
536 547 548 0
-27 -548 0
-544 542 -549 0
544 -542 -549 0
-544 -542 549 0
544 542 549 0
-23 -549 0
544 -550 -551 0
-544 550 -551 0
551 -544 -550 0
551 544 550 0
-25 551 0
-552 553 0
-542 553 0
552 542 -553 0
544 -553 -554 0
-544 553 -554 0
-544 -553 554 0
544 553 554 0
-26 554 0
552 555 0
542 555 0
-552 -542 -555 0
-544 555 -556 0
544 -555 -556 0
556 -555 -544 0
544 555 556 0
-27 -556 0
-552 550 -557 0
552 -550 -557 0
-552 -550 557 0
552 550 557 0
-23 -557 0
552 -558 -559 0
-552 558 -559 0
559 -552 -558 0
559 552 558 0
-25 559 0
-560 561 0
-550 561 0
560 550 -561 0
552 -561 -562 0
-552 561 -562 0
-552 -561 562 0
552 561 562 0
-26 562 0
560 563 0
550 563 0
-560 -550 -563 0
-552 563 -564 0
552 -563 -564 0
564 -563 -552 0
552 563 564 0
-27 -564 0
-560 558 -565 0
560 -558 -565 0
-560 -558 565 0
560 558 565 0
-23 -565 0
560 -550 -566 0
-560 550 -566 0
566 -560 -550 0
566 560 550 0
-25 566 0
-550 567 0
-558 567 0
550 558 -567 0
560 -567 -568 0
-560 567 -568 0
-560 -567 568 0
560 567 568 0
-26 568 0
550 569 0
558 569 0
-550 -558 -569 0
-560 569 -570 0
560 -569 -570 0
570 -569 -560 0
560 569 570 0
-27 -570 0
-18 571 -572 0
18 -571 -572 0
-18 -571 572 0
18 571 572 0
-23 -572 0
18 -573 -574 0
-18 573 -574 0
574 -18 -573 0
574 18 573 0
-25 574 0
-575 576 0
-571 576 0
575 571 -576 0
18 -576 -577 0
-18 576 -577 0
-18 -576 577 0
18 576 577 0
-26 577 0
575 578 0
571 578 0
-575 -571 -578 0
-18 578 -579 0
18 -578 -579 0
579 -578 -18 0
18 578 579 0
-27 -579 0
-575 573 -580 0
575 -573 -580 0
-575 -573 580 0
575 573 580 0
-23 -580 0
575 -581 -582 0
-575 581 -582 0
582 -575 -581 0
582 575 581 0
-25 582 0
-583 584 0
-573 584 0
583 573 -584 0
575 -584 -585 0
-575 584 -585 0
-575 -584 585 0
575 584 585 0
-26 585 0
583 586 0
573 586 0
-583 -573 -586 0
-575 586 -587 0
575 -586 -587 0
587 -586 -575 0
575 586 587 0
-27 -587 0
-583 581 -588 0
583 -581 -588 0
-583 -581 588 0
583 581 588 0
-23 -588 0
583 -589 -590 0
-583 589 -590 0
590 -583 -589 0
590 583 589 0
-25 590 0
-591 592 0
-581 592 0
591 581 -592 0
583 -592 -593 0
-583 592 -593 0
-583 -592 593 0
583 592 593 0
-26 593 0
591 594 0
581 594 0
-591 -581 -594 0
-583 594 -595 0
583 -594 -595 0
595 -594 -583 0
583 594 595 0
-27 -595 0
-591 589 -596 0
591 -589 -596 0
-591 -589 596 0
591 589 596 0
-23 -596 0
591 -597 -598 0
-591 597 -598 0
598 -591 -597 0
598 591 597 0
-25 598 0
-599 600 0
-589 600 0
599 589 -600 0
591 -600 -601 0
-591 600 -601 0
-591 -600 601 0
591 600 601 0
-26 601 0
599 602 0
589 602 0
-599 -589 -602 0
-591 602 -603 0
591 -602 -603 0
603 -602 -591 0
591 602 603 0
-27 -603 0
-599 597 -604 0
599 -597 -604 0
-599 -597 604 0
599 597 604 0
-23 -604 0
599 -605 -606 0
-599 605 -606 0
606 -599 -605 0
606 599 605 0
-25 606 0
-607 608 0
-597 608 0
607 597 -608 0
599 -608 -609 0
-599 608 -609 0
-599 -608 609 0
599 608 609 0
-26 609 0
607 610 0
597 610 0
-607 -597 -610 0
-599 610 -611 0
599 -610 -611 0
611 -610 -599 0
599 610 611 0
-27 -611 0
-607 605 -612 0
607 -605 -612 0
-607 -605 612 0
607 605 612 0
-23 -612 0
607 -613 -614 0
-607 613 -614 0
614 -607 -613 0
614 607 613 0
-25 614 0
-615 616 0
-605 616 0
615 605 -616 0
607 -616 -617 0
-607 616 -617 0
-607 -616 617 0
607 616 617 0
-26 617 0
615 618 0
605 618 0
-615 -605 -618 0
-607 618 -619 0
607 -618 -619 0
619 -618 -607 0
607 618 619 0
-27 -619 0
-615 613 -620 0
615 -613 -620 0
-615 -613 620 0
615 613 620 0
-23 -620 0
615 -621 -622 0
-615 621 -622 0
622 -615 -621 0
622 615 621 0
-25 622 0
-623 624 0
-613 624 0
623 613 -624 0
615 -624 -625 0
-615 624 -625 0
-615 -624 625 0
615 624 625 0
-26 625 0
623 626 0
613 626 0
-623 -613 -626 0
-615 626 -627 0
615 -626 -627 0
627 -626 -615 0
615 626 627 0
-27 -627 0
-623 621 -628 0
623 -621 -628 0
-623 -621 628 0
623 621 628 0
-23 -628 0
623 -629 -630 0
-623 629 -630 0
630 -623 -629 0
630 623 629 0
-25 630 0
-631 632 0
-621 632 0
631 621 -632 0
623 -632 -633 0
-623 632 -633 0
-623 -632 633 0
623 632 633 0
-26 633 0
631 634 0
621 634 0
-631 -621 -634 0
-623 634 -635 0
623 -634 -635 0
635 -634 -623 0
623 634 635 0
-27 -635 0
-631 629 -636 0
631 -629 -636 0
-631 -629 636 0
631 629 636 0
-23 -636 0
631 -637 -638 0
-631 637 -638 0
638 -631 -637 0
638 631 637 0
-25 638 0
-639 640 0
-629 640 0
639 629 -640 0
631 -640 -641 0
-631 640 -641 0
-631 -640 641 0
631 640 641 0
-26 641 0
639 642 0
629 642 0
-639 -629 -642 0
-631 642 -643 0
631 -642 -643 0
643 -642 -631 0
631 642 643 0
-27 -643 0
-639 637 -644 0
639 -637 -644 0
-639 -637 644 0
639 637 644 0
-23 -644 0
639 -645 -646 0
-639 645 -646 0
646 -639 -645 0
646 639 645 0
-25 646 0
-647 648 0
-637 648 0
647 637 -648 0
639 -648 -649 0
-639 648 -649 0
-639 -648 649 0
639 648 649 0
-26 649 0
647 650 0
637 650 0
-647 -637 -650 0
-639 650 -651 0
639 -650 -651 0
651 -650 -639 0
639 650 651 0
-27 -651 0
-647 645 -652 0
647 -645 -652 0
-647 -645 652 0
647 645 652 0
-23 -652 0
647 -653 -654 0
-647 653 -654 0
654 -647 -653 0
654 647 653 0
-25 654 0
-655 656 0
-645 656 0
655 645 -656 0
647 -656 -657 0
-647 656 -657 0
-647 -656 657 0
647 656 657 0
-26 657 0
655 658 0
645 658 0
-655 -645 -658 0
-647 658 -659 0
647 -658 -659 0
659 -658 -647 0
647 658 659 0
-27 -659 0
-655 653 -660 0
655 -653 -660 0
-655 -653 660 0
655 653 660 0
-23 -660 0
655 -613 -661 0
-655 613 -661 0
661 -655 -613 0
661 655 613 0
-25 661 0
-613 662 0
-621 662 0
-629 662 0
-637 662 0
-645 662 0
-653 662 0
663 0
655 -662 -664 0
-655 662 -664 0
-655 -662 664 0
655 662 664 0
-26 664 0
613 665 0
621 665 0
629 665 0
637 665 0
645 665 0
653 665 0
-666 0
-655 665 -667 0
655 -665 -667 0
667 -665 -655 0
655 665 667 0
-27 -667 0
-19 668 -669 0
19 -668 -669 0
-19 -668 669 0
19 668 669 0
-23 -669 0
19 -670 -671 0
-19 670 -671 0
671 -19 -670 0
671 19 670 0
-25 671 0
-672 673 0
-668 673 0
672 668 -673 0
19 -673 -674 0
-19 673 -674 0
-19 -673 674 0
19 673 674 0
-26 674 0
672 675 0
668 675 0
-672 -668 -675 0
-19 675 -676 0
19 -675 -676 0
676 -675 -19 0
19 675 676 0
-27 -676 0
-672 670 -677 0
672 -670 -677 0
-672 -670 677 0
672 670 677 0
-23 -677 0
672 -678 -679 0
-672 678 -679 0
679 -672 -678 0
679 672 678 0
-25 679 0
-680 681 0
-670 681 0
680 670 -681 0
672 -681 -682 0
-672 681 -682 0
-672 -681 682 0
672 681 682 0
-26 682 0
680 683 0
670 683 0
-680 -670 -683 0
-672 683 -684 0
672 -683 -684 0
684 -683 -672 0
672 683 684 0
-27 -684 0
-680 678 -685 0
680 -678 -685 0
-680 -678 685 0
680 678 685 0
-23 -685 0
680 -686 -687 0
-680 686 -687 0
687 -680 -686 0
687 680 686 0
-25 687 0
-688 689 0
-678 689 0
688 678 -689 0
680 -689 -690 0
-680 689 -690 0
-680 -689 690 0
680 689 690 0
-26 690 0
688 691 0
678 691 0
-688 -678 -691 0
-680 691 -692 0
680 -691 -692 0
692 -691 -680 0
680 691 692 0
-27 -692 0
-688 686 -693 0
688 -686 -693 0
-688 -686 693 0
688 686 693 0
-23 -693 0
688 -694 -695 0
-688 694 -695 0
695 -688 -694 0
695 688 694 0
-25 695 0
-696 697 0
-686 697 0
696 686 -697 0
688 -697 -698 0
-688 697 -698 0
-688 -697 698 0
688 697 698 0
-26 698 0
696 699 0
686 699 0
-696 -686 -699 0
-688 699 -700 0
688 -699 -700 0
700 -699 -688 0
688 699 700 0
-27 -700 0
-696 694 -701 0
696 -694 -701 0
-696 -694 701 0
696 694 701 0
-23 -701 0
696 -702 -703 0
-696 702 -703 0
703 -696 -702 0
703 696 702 0
-25 703 0
-704 705 0
-694 705 0
704 694 -705 0
696 -705 -706 0
-696 705 -706 0
-696 -705 706 0
696 705 706 0
-26 706 0
704 707 0
694 707 0
-704 -694 -707 0
-696 707 -708 0
696 -707 -708 0
708 -707 -696 0
696 707 708 0
-27 -708 0
-704 702 -709 0
704 -702 -709 0
-704 -702 709 0
704 702 709 0
-23 -709 0
704 -710 -711 0
-704 710 -711 0
711 -704 -710 0
711 704 710 0
-25 711 0
-712 713 0
-702 713 0
712 702 -713 0
704 -713 -714 0
-704 713 -714 0
-704 -713 714 0
704 713 714 0
-26 714 0
712 715 0
702 715 0
-712 -702 -715 0
-704 715 -716 0
704 -715 -716 0
716 -715 -704 0
704 715 716 0
-27 -716 0
-712 710 -717 0
712 -710 -717 0
-712 -710 717 0
712 710 717 0
-23 -717 0
712 -718 -719 0
-712 718 -719 0
719 -712 -718 0
719 712 718 0
-25 719 0
-720 721 0
-710 721 0
720 710 -721 0
712 -721 -722 0
-712 721 -722 0
-712 -721 722 0
712 721 722 0
-26 722 0
720 723 0
710 723 0
-720 -710 -723 0
-712 723 -724 0
712 -723 -724 0
724 -723 -712 0
712 723 724 0
-27 -724 0
-720 718 -725 0
720 -718 -725 0
-720 -718 725 0
720 718 725 0
-23 -725 0
720 -694 -726 0
-720 694 -726 0
726 -720 -694 0
726 720 694 0
-25 726 0
-694 727 0
-702 727 0
-710 727 0
-718 727 0
694 702 710 718 -727 0
720 -727 -728 0
-720 727 -728 0
-720 -727 728 0
720 727 728 0
-26 728 0
694 729 0
702 729 0
710 729 0
718 729 0
-730 0
-720 729 -731 0
720 -729 -731 0
731 -729 -720 0
720 729 731 0
-27 -731 0
-20 732 -733 0
20 -732 -733 0
-20 -732 733 0
20 732 733 0
-23 -733 0
20 -734 -735 0
-20 734 -735 0
735 -20 -734 0
735 20 734 0
-25 735 0
-736 737 0
-732 737 0
736 732 -737 0
20 -737 -738 0
-20 737 -738 0
-20 -737 738 0
20 737 738 0
-26 738 0
736 739 0
732 739 0
-736 -732 -739 0
-20 739 -740 0
20 -739 -740 0
740 -739 -20 0
20 739 740 0
-27 -740 0
-736 734 -741 0
736 -734 -741 0
-736 -734 741 0
736 734 741 0
-23 -741 0
736 -742 -743 0
-736 742 -743 0
743 -736 -742 0
743 736 742 0
-25 743 0
-744 745 0
-734 745 0
744 734 -745 0
736 -745 -746 0
-736 745 -746 0
-736 -745 746 0
736 745 746 0
-26 746 0
744 747 0
734 747 0
-744 -734 -747 0
-736 747 -748 0
736 -747 -748 0
748 -747 -736 0
736 747 748 0
-27 -748 0
-744 742 -749 0
744 -742 -749 0
-744 -742 749 0
744 742 749 0
-23 -749 0
744 -750 -751 0
-744 750 -751 0
751 -744 -750 0
751 744 750 0
-25 751 0
-752 753 0
-742 753 0
752 742 -753 0
744 -753 -754 0
-744 753 -754 0
-744 -753 754 0
744 753 754 0
-26 754 0
752 755 0
742 755 0
-752 -742 -755 0
-744 755 -756 0
744 -755 -756 0
756 -755 -744 0
744 755 756 0
-27 -756 0
-752 750 -757 0
752 -750 -757 0
-752 -750 757 0
752 750 757 0
-23 -757 0
752 -758 -759 0
-752 758 -759 0
759 -752 -758 0
759 752 758 0
-25 759 0
-760 761 0
-750 761 0
760 750 -761 0
752 -761 -762 0
-752 761 -762 0
-752 -761 762 0
752 761 762 0
-26 762 0
760 763 0
750 763 0
-760 -750 -763 0
-752 763 -764 0
752 -763 -764 0
764 -763 -752 0
752 763 764 0
-27 -764 0
-760 758 -765 0
760 -758 -765 0
-760 -758 765 0
760 758 765 0
-23 -765 0
760 -766 -767 0
-760 766 -767 0
767 -760 -766 0
767 760 766 0
-25 767 0
-768 769 0
-758 769 0
768 758 -769 0
760 -769 -770 0
-760 769 -770 0
-760 -769 770 0
760 769 770 0
-26 770 0
768 771 0
758 771 0
-768 -758 -771 0
-760 771 -772 0
760 -771 -772 0
772 -771 -760 0
760 771 772 0
-27 -772 0
-768 766 -773 0
768 -766 -773 0
-768 -766 773 0
768 766 773 0
-23 -773 0
768 -774 -775 0
-768 774 -775 0
775 -768 -774 0
775 768 774 0
-25 775 0
-776 777 0
-766 777 0
776 766 -777 0
768 -777 -778 0
-768 777 -778 0
-768 -777 778 0
768 777 778 0
-26 778 0
776 779 0
766 779 0
-776 -766 -779 0
-768 779 -780 0
768 -779 -780 0
780 -779 -768 0
768 779 780 0
-27 -780 0
-776 774 -781 0
776 -774 -781 0
-776 -774 781 0
776 774 781 0
-23 -781 0
776 -782 -783 0
-776 782 -783 0
783 -776 -782 0
783 776 782 0
-25 783 0
-784 785 0
-774 785 0
784 774 -785 0
776 -785 -786 0
-776 785 -786 0
-776 -785 786 0
776 785 786 0
-26 786 0
784 787 0
774 787 0
-784 -774 -787 0
-776 787 -788 0
776 -787 -788 0
788 -787 -776 0
776 787 788 0
-27 -788 0
-784 782 -789 0
784 -782 -789 0
-784 -782 789 0
784 782 789 0
-23 -789 0
784 -790 -791 0
-784 790 -791 0
791 -784 -790 0
791 784 790 0
-25 791 0
-792 793 0
-782 793 0
792 782 -793 0
784 -793 -794 0
-784 793 -794 0
-784 -793 794 0
784 793 794 0
-26 794 0
792 795 0
782 795 0
-792 -782 -795 0
-784 795 -796 0
784 -795 -796 0
796 -795 -784 0
784 795 796 0
-27 -796 0
-792 790 -797 0
792 -790 -797 0
-792 -790 797 0
792 790 797 0
-23 -797 0
792 -758 -798 0
-792 758 -798 0
798 -792 -758 0
798 792 758 0
-25 798 0
-758 799 0
-766 799 0
-774 799 0
-782 799 0
-790 799 0
800 0
792 -799 -801 0
-792 799 -801 0
-792 -799 801 0
792 799 801 0
-26 801 0
758 802 0
766 802 0
774 802 0
782 802 0
790 802 0
-803 0
-792 802 -804 0
792 -802 -804 0
804 -802 -792 0
792 802 804 0
-27 -804 0
23 25 26 27 0
-23 -25 0
-23 -26 0
-23 -27 0
-25 -26 0
-25 -27 0
-26 -27 0
21 -805 0
28 -805 0
31 -805 0
34 -805 0
37 -805 0
40 -805 0
43 -805 0
46 -805 0
49 -805 0
52 -805 0
-805 -55 0
57 -805 0
65 -805 0
73 -805 0
81 -805 0
-805 -89 0
97 -805 0
105 -805 0
-805 -113 0
128 -805 0
130 -805 0
-805 -138 0
-805 -146 0
-805 -154 0
-805 -162 0
170 -805 0
-805 -178 0
-805 -186 0
194 -805 0
208 -805 0
210 -805 0
-805 -218 0
226 -805 0
234 -805 0
242 -805 0
250 -805 0
258 -805 0
266 -805 0
-805 -274 0
-805 -282 0
-805 -297 0
-805 -299 0
307 -805 0
315 -805 0
323 -805 0
-805 -331 0
339 -805 0
347 -805 0
-805 -355 0
-805 -370 0
-805 -372 0
-805 -380 0
388 -805 0
396 -805 0
404 -805 0
419 -805 0
-805 -421 0
429 -805 0
-805 -437 0
445 -805 0
-805 -453 0
461 -805 0
-805 -469 0
-805 -477 0
-805 -485 0
-805 -493 0
501 -805 0
-805 -516 0
-805 -518 0
-805 -526 0
534 -805 0
542 -805 0
550 -805 0
-805 -558 0
-805 -571 0
-805 -573 0
581 -805 0
-805 -589 0
-805 -597 0
-805 -605 0
-805 -613 0
-805 -621 0
629 -805 0
-805 -637 0
645 -805 0
653 -805 0
668 -805 0
670 -805 0
678 -805 0
-805 -686 0
-805 -694 0
-805 -702 0
710 -805 0
718 -805 0
-805 -732 0
-805 -734 0
742 -805 0
750 -805 0
758 -805 0
-805 -766 0
774 -805 0
782 -805 0
-805 -790 0
805 0
-806 0
-807 0
-808 0
-809 0
-810 0
-811 0
-812 0
-813 0
